\ENCODING=ISO-8859-1
\Problem name: ilog.cplex

Maximize
 obj: 630 x(0)#0 + 613 x(1)#1 + 786 x(2)#2 + 805 x(3)#3 + 611 x(4)#4
      + 826 x(5)#5 + 753 x(6)#6 + 979 x(7)#7 + 701 x(8)#8 + 597 x(9)#9
      + 751 x(10)#10 + 693 x(11)#11 + 812 x(12)#12 + 619 x(13)#13
      + 810 x(14)#14 + 460 x(15)#15 + 1000 x(16)#16 + 972 x(17)#17
      + 878 x(18)#18 + 906 x(19)#19 + 447 x(20)#20 + 827 x(21)#21
      + 894 x(22)#22 + 984 x(23)#23 + 898 x(24)#24 + 687 x(25)#25
      + 816 x(26)#26 + 843 x(27)#27 + 712 x(28)#28 + 945 x(29)#29
      + 985 x(30)#30 + 1237 x(31)#31 + 1125 x(32)#32 + 703 x(33)#33
      + 916 x(34)#34 + 475 x(35)#35 + 735 x(36)#36 + 852 x(37)#37
      + 833 x(38)#38 + 486 x(39)#39 + 957 x(40)#40 + 500 x(41)#41
      + 893 x(42)#42 + 779 x(43)#43 + 683 x(44)#44 + 708 x(45)#45
      + 729 x(46)#46 + 761 x(47)#47 + 566 x(48)#48 + 498 x(49)#49
      + 926 x(50)#50 + 657 x(51)#51 + 832 x(52)#52 + 938 x(53)#53
      + 890 x(54)#54 + 550 x(55)#55 + 654 x(56)#56 + 796 x(57)#57
      + 1123 x(58)#58 + 553 x(59)#59 + 634 x(60)#60 + 872 x(61)#61
      + 1029 x(62)#62 + 1021 x(63)#63 + 940 x(64)#64 + 781 x(65)#65
      + 756 x(66)#66 + 1098 x(67)#67 + 808 x(68)#68 + 841 x(69)#69
      + 568 x(70)#70 + 320 x(71)#71 + 990 x(72)#72 + 225 x(73)#73
      + 724 x(74)#74 + 354 x(75)#75 + 898 x(76)#76 + 842 x(77)#77
      + 435 x(78)#78 + 745 x(79)#79 + 1039 x(80)#80 + 600 x(81)#81
      + 834 x(82)#82 + 892 x(83)#83 + 768 x(84)#84 + 889 x(85)#85
      + 746 x(86)#86 + 1093 x(87)#87 + 873 x(88)#88 + 711 x(89)#89
      + 912 x(90)#90 + 541 x(91)#91 + 565 x(92)#92 + 411 x(93)#93
      + 580 x(94)#94 + 869 x(95)#95 + 882 x(96)#96 + 750 x(97)#97
      + 925 x(98)#98 + 799 x(99)#99
Subject To
 c1: 339 x(0)#0 + 171 x(1)#1 + 913 x(2)#2 + 136 x(3)#3 + 934 x(4)#4
     + 822 x(5)#5 + 629 x(6)#6 + 384 x(7)#7 + 134 x(8)#8 + 550 x(9)#9
     + 34 x(10)#10 + 615 x(11)#11 + 810 x(12)#12 + 667 x(13)#13 + 855 x(14)#14
     + 176 x(15)#15 + 482 x(16)#16 + 658 x(17)#17 + 514 x(18)#18 + 643 x(19)#19
     + 351 x(20)#20 + 476 x(21)#21 + 699 x(22)#22 + 862 x(23)#23 + 759 x(24)#24
     + 704 x(25)#25 + 839 x(26)#26 + 322 x(27)#27 + 778 x(28)#28 + 160 x(29)#29
     + 218 x(30)#30 + 969 x(31)#31 + 261 x(32)#32 + 268 x(33)#33 + 105 x(34)#34
     + 360 x(35)#35 + 889 x(36)#36 + 121 x(37)#37 + 172 x(38)#38 + 393 x(39)#39
     + 395 x(40)#40 + 39 x(41)#41 + 415 x(42)#42 + 981 x(43)#43 + 129 x(44)#44
     + 292 x(45)#45 + 154 x(46)#46 + 451 x(47)#47 + 834 x(48)#48 + 228 x(49)#49
     + 502 x(50)#50 + 499 x(51)#51 + 466 x(52)#52 + 774 x(53)#53 + 390 x(54)#54
     + 610 x(55)#55 + 120 x(56)#56 + 117 x(57)#57 + 711 x(58)#58 + 811 x(59)#59
     + 480 x(60)#60 + 979 x(61)#61 + 440 x(62)#62 + 801 x(63)#63 + 863 x(64)#64
     + 973 x(65)#65 + 191 x(66)#66 + 703 x(67)#67 + 443 x(68)#68 + 470 x(69)#69
     + 113 x(70)#70 + 268 x(71)#71 + 310 x(72)#72 + 245 x(73)#73 + 687 x(74)#74
     + 223 x(75)#75 + 910 x(76)#76 + 758 x(77)#77 + 137 x(78)#78 + 383 x(79)#79
     + 725 x(80)#80 + 290 x(81)#81 + 4 x(82)#82 + 31 x(83)#83 + 521 x(84)#84
     + 245 x(85)#85 + 419 x(86)#86 + 67 x(87)#87 + 467 x(88)#88 + 299 x(89)#89
     + 214 x(90)#90 + 341 x(91)#91 + 792 x(92)#92 + 154 x(93)#93 + 357 x(94)#94
     + 190 x(95)#95 + 410 x(96)#96 + 677 x(97)#97 + 555 x(98)#98 + 318 x(99)#99
     <= 23272
 c2: 492 x(0)#0 + 726 x(1)#1 + 75 x(2)#2 + 329 x(3)#3 + 663 x(4)#4 + 473 x(5)#5
     + 747 x(6)#6 + 823 x(7)#7 + 239 x(8)#8 + 121 x(9)#9 + 75 x(10)#10
     + 442 x(11)#11 + 197 x(12)#12 + 331 x(13)#13 + 771 x(14)#14 + 390 x(15)#15
     + 763 x(16)#16 + 420 x(17)#17 + 512 x(18)#18 + 899 x(19)#19 + 441 x(20)#20
     + 803 x(21)#21 + 693 x(22)#22 + 313 x(23)#23 + 2 x(24)#24 + 870 x(25)#25
     + 193 x(26)#26 + 799 x(27)#27 + 253 x(28)#28 + 733 x(29)#29 + 709 x(30)#30
     + 891 x(31)#31 + 637 x(32)#32 + 161 x(33)#33 + 657 x(34)#34 + 817 x(35)#35
     + 487 x(36)#36 + 987 x(37)#37 + 851 x(38)#38 + 565 x(39)#39 + 607 x(40)#40
     + 84 x(41)#41 + 215 x(42)#42 + 486 x(43)#43 + 842 x(44)#44 + 872 x(45)#45
     + 845 x(46)#46 + 32 x(47)#47 + 608 x(48)#48 + 9 x(49)#49 + 142 x(50)#50
     + 920 x(51)#51 + x(52)#52 + 141 x(53)#53 + 316 x(54)#54 + 662 x(55)#55
     + 29 x(56)#56 + 350 x(57)#57 + 684 x(58)#58 + 980 x(59)#59 + 225 x(60)#60
     + 61 x(61)#61 + 292 x(62)#62 + 416 x(63)#63 + 877 x(64)#64 + 159 x(65)#65
     + 669 x(66)#66 + 891 x(67)#67 + 134 x(68)#68 + 83 x(69)#69 + 615 x(70)#70
     + 71 x(71)#71 + 364 x(72)#72 + 232 x(73)#73 + 782 x(74)#74 + 595 x(75)#75
     + 802 x(76)#76 + 929 x(77)#77 + 393 x(78)#78 + 254 x(79)#79 + 409 x(80)#80
     + 605 x(81)#81 + 453 x(82)#82 + 940 x(83)#83 + 892 x(84)#84 + 624 x(85)#85
     + 379 x(86)#86 + 932 x(87)#87 + 193 x(88)#88 + 4 x(89)#89 + 542 x(90)#90
     + 5 x(91)#91 + 13 x(92)#92 + 5 x(93)#93 + 234 x(94)#94 + 724 x(95)#95
     + 380 x(96)#96 + 519 x(97)#97 + 893 x(98)#98 + 935 x(99)#99 <= 24350
 c3: 739 x(0)#0 + 88 x(1)#1 + 247 x(2)#2 + 806 x(3)#3 + 566 x(4)#4 + 29 x(5)#5
     + 209 x(6)#6 + 535 x(7)#7 + 8 x(8)#8 + 245 x(9)#9 + 175 x(10)#10
     + 190 x(11)#11 + 381 x(12)#12 + 911 x(13)#13 + 404 x(14)#14 + 918 x(15)#15
     + 873 x(16)#16 + 61 x(17)#17 + 770 x(18)#18 + 739 x(19)#19 + 55 x(20)#20
     + 118 x(21)#21 + 687 x(22)#22 + 907 x(23)#23 + 554 x(24)#24 + 244 x(25)#25
     + 358 x(26)#26 + 255 x(27)#27 + 483 x(28)#28 + 618 x(29)#29 + 626 x(30)#30
     + 789 x(31)#31 + 990 x(32)#32 + 523 x(33)#33 + 547 x(34)#34 + 771 x(35)#35
     + 205 x(36)#36 + 818 x(37)#37 + 670 x(38)#38 + 531 x(39)#39 + 169 x(40)#40
     + 365 x(41)#41 + 310 x(42)#42 + 282 x(43)#43 + 213 x(44)#44 + 49 x(45)#45
     + 93 x(46)#46 + 271 x(47)#47 + 25 x(48)#48 + 756 x(49)#49 + 201 x(50)#50
     + 235 x(51)#51 + 735 x(52)#52 + 860 x(53)#53 + 318 x(54)#54 + 100 x(55)#55
     + 566 x(56)#56 + 187 x(57)#57 + 847 x(58)#58 + 449 x(59)#59 + 922 x(60)#60
     + 15 x(61)#61 + 373 x(62)#62 + 982 x(63)#63 + 56 x(64)#64 + 475 x(65)#65
     + 443 x(66)#66 + 805 x(67)#67 + 138 x(68)#68 + 824 x(69)#69 + 86 x(70)#70
     + 264 x(71)#71 + 784 x(72)#72 + 97 x(73)#73 + 512 x(74)#74 + 505 x(75)#75
     + 224 x(76)#76 + 249 x(77)#77 + 663 x(78)#78 + 637 x(79)#79 + 443 x(80)#80
     + 44 x(81)#81 + 280 x(82)#82 + 948 x(83)#83 + 360 x(84)#84 + 280 x(85)#85
     + 541 x(86)#86 + 994 x(87)#87 + 324 x(88)#88 + 506 x(89)#89 + 943 x(90)#90
     + 355 x(91)#91 + 368 x(92)#92 + 152 x(93)#93 + 76 x(94)#94 + 960 x(95)#95
     + 728 x(96)#96 + 762 x(97)#97 + 919 x(98)#98 + 52 x(99)#99 <= 22882
 c4: 925 x(0)#0 + 919 x(1)#1 + 818 x(2)#2 + 565 x(3)#3 + 130 x(4)#4
     + 440 x(5)#5 + 851 x(6)#6 + 979 x(7)#7 + 903 x(8)#8 + 855 x(9)#9
     + 930 x(10)#10 + 810 x(11)#11 + 543 x(12)#12 + 222 x(13)#13 + 670 x(14)#14
     + 407 x(15)#15 + 154 x(16)#16 + 536 x(17)#17 + 971 x(18)#18 + 148 x(19)#19
     + 650 x(20)#20 + 600 x(21)#21 + 548 x(22)#22 + 324 x(23)#23 + 125 x(24)#24
     + 43 x(25)#25 + 960 x(26)#26 + 629 x(27)#27 + 279 x(28)#28 + 230 x(29)#29
     + 854 x(30)#30 + 496 x(31)#31 + 757 x(32)#32 + 854 x(33)#33 + 968 x(34)#34
     + 258 x(35)#35 + 809 x(36)#36 + 500 x(37)#37 + 993 x(38)#38 + 56 x(39)#39
     + 905 x(40)#40 + 397 x(41)#41 + 453 x(42)#42 + 805 x(43)#43 + 222 x(44)#44
     + 154 x(45)#45 + 933 x(46)#46 + 515 x(47)#47 + 277 x(48)#48 + 973 x(49)#49
     + 967 x(50)#50 + 346 x(51)#51 + 384 x(52)#52 + 902 x(53)#53 + 856 x(54)#54
     + 316 x(55)#55 + 434 x(56)#56 + 656 x(57)#57 + 457 x(58)#58 + 116 x(59)#59
     + 532 x(60)#60 + 687 x(61)#61 + 722 x(62)#62 + 426 x(63)#63 + 762 x(64)#64
     + 262 x(65)#65 + 617 x(66)#66 + 320 x(67)#67 + 437 x(68)#68 + 34 x(69)#69
     + 960 x(70)#70 + x(71)#71 + 822 x(72)#72 + 209 x(73)#73 + 306 x(74)#74
     + 94 x(75)#75 + 1000 x(76)#76 + 664 x(77)#77 + 452 x(78)#78 + 480 x(79)#79
     + 594 x(80)#80 + 278 x(81)#81 + 331 x(82)#82 + 61 x(83)#83 + 919 x(84)#84
     + 876 x(85)#85 + 185 x(86)#86 + 827 x(87)#87 + 470 x(88)#88 + 73 x(89)#89
     + 207 x(90)#90 + 469 x(91)#91 + 96 x(92)#92 + 511 x(93)#93 + 817 x(94)#94
     + 968 x(95)#95 + 237 x(96)#96 + 887 x(97)#97 + 821 x(98)#98 + 717 x(99)#99
     <= 27454
 c5: 645 x(0)#0 + 909 x(1)#1 + 138 x(2)#2 + 76 x(3)#3 + 343 x(4)#4 + 115 x(5)#5
     + 231 x(6)#6 + 301 x(7)#7 + 339 x(8)#8 + 607 x(9)#9 + 970 x(10)#10
     + 814 x(11)#11 + 65 x(12)#12 + 252 x(13)#13 + 605 x(14)#14 + 219 x(15)#15
     + 430 x(16)#16 + 945 x(17)#17 + 984 x(18)#18 + 425 x(19)#19 + 274 x(20)#20
     + 716 x(21)#21 + 594 x(22)#22 + 425 x(23)#23 + 898 x(24)#24 + 36 x(25)#25
     + 565 x(26)#26 + 788 x(27)#27 + 109 x(28)#28 + 888 x(29)#29 + 612 x(30)#30
     + 571 x(31)#31 + 921 x(32)#32 + 411 x(33)#33 + 733 x(34)#34 + 155 x(35)#35
     + 396 x(36)#36 + 213 x(37)#37 + 486 x(38)#38 + 275 x(39)#39 + 330 x(40)#40
     + 104 x(41)#41 + 593 x(42)#42 + 870 x(43)#43 + 121 x(44)#44 + 879 x(45)#45
     + 79 x(46)#46 + 670 x(47)#47 + 877 x(48)#48 + 334 x(49)#49 + 526 x(50)#50
     + 750 x(51)#51 + 589 x(52)#52 + 193 x(53)#53 + 746 x(54)#54 + 174 x(55)#55
     + 882 x(56)#56 + 630 x(57)#57 + 516 x(58)#58 + 157 x(59)#59 + 779 x(60)#60
     + 538 x(61)#61 + 998 x(62)#62 + 992 x(63)#63 + 466 x(64)#64 + 397 x(65)#65
     + 82 x(66)#66 + 645 x(67)#67 + 540 x(68)#68 + 317 x(69)#69 + 301 x(70)#70
     + 86 x(71)#71 + 538 x(72)#72 + 2 x(73)#73 + 247 x(74)#74 + 302 x(75)#75
     + 58 x(76)#76 + 22 x(77)#77 + 247 x(78)#78 + 717 x(79)#79 + 773 x(80)#80
     + 995 x(81)#81 + 673 x(82)#82 + 515 x(83)#83 + 791 x(84)#84 + 994 x(85)#85
     + 999 x(86)#86 + 366 x(87)#87 + 777 x(88)#88 + 927 x(89)#89 + 744 x(90)#90
     + 651 x(91)#91 + 974 x(92)#92 + 989 x(93)#93 + 731 x(94)#94 + 479 x(95)#95
     + 335 x(96)#96 + 451 x(97)#97 + 881 x(98)#98 + 563 x(99)#99 <= 26191
Bounds
 0 <= x(0)#0 <= 1
 0 <= x(1)#1 <= 1
 0 <= x(2)#2 <= 1
 0 <= x(3)#3 <= 1
 0 <= x(4)#4 <= 1
 0 <= x(5)#5 <= 1
 0 <= x(6)#6 <= 1
 0 <= x(7)#7 <= 1
 0 <= x(8)#8 <= 1
 0 <= x(9)#9 <= 1
 0 <= x(10)#10 <= 1
 0 <= x(11)#11 <= 1
 0 <= x(12)#12 <= 1
 0 <= x(13)#13 <= 1
 0 <= x(14)#14 <= 1
 0 <= x(15)#15 <= 1
 0 <= x(16)#16 <= 1
 0 <= x(17)#17 <= 1
 0 <= x(18)#18 <= 1
 0 <= x(19)#19 <= 1
 0 <= x(20)#20 <= 1
 0 <= x(21)#21 <= 1
 0 <= x(22)#22 <= 1
 0 <= x(23)#23 <= 1
 0 <= x(24)#24 <= 1
 0 <= x(25)#25 <= 1
 0 <= x(26)#26 <= 1
 0 <= x(27)#27 <= 1
 0 <= x(28)#28 <= 1
 0 <= x(29)#29 <= 1
 0 <= x(30)#30 <= 1
 0 <= x(31)#31 <= 1
 0 <= x(32)#32 <= 1
 0 <= x(33)#33 <= 1
 0 <= x(34)#34 <= 1
 0 <= x(35)#35 <= 1
 0 <= x(36)#36 <= 1
 0 <= x(37)#37 <= 1
 0 <= x(38)#38 <= 1
 0 <= x(39)#39 <= 1
 0 <= x(40)#40 <= 1
 0 <= x(41)#41 <= 1
 0 <= x(42)#42 <= 1
 0 <= x(43)#43 <= 1
 0 <= x(44)#44 <= 1
 0 <= x(45)#45 <= 1
 0 <= x(46)#46 <= 1
 0 <= x(47)#47 <= 1
 0 <= x(48)#48 <= 1
 0 <= x(49)#49 <= 1
 0 <= x(50)#50 <= 1
 0 <= x(51)#51 <= 1
 0 <= x(52)#52 <= 1
 0 <= x(53)#53 <= 1
 0 <= x(54)#54 <= 1
 0 <= x(55)#55 <= 1
 0 <= x(56)#56 <= 1
 0 <= x(57)#57 <= 1
 0 <= x(58)#58 <= 1
 0 <= x(59)#59 <= 1
 0 <= x(60)#60 <= 1
 0 <= x(61)#61 <= 1
 0 <= x(62)#62 <= 1
 0 <= x(63)#63 <= 1
 0 <= x(64)#64 <= 1
 0 <= x(65)#65 <= 1
 0 <= x(66)#66 <= 1
 0 <= x(67)#67 <= 1
 0 <= x(68)#68 <= 1
 0 <= x(69)#69 <= 1
 0 <= x(70)#70 <= 1
 0 <= x(71)#71 <= 1
 0 <= x(72)#72 <= 1
 0 <= x(73)#73 <= 1
 0 <= x(74)#74 <= 1
 0 <= x(75)#75 <= 1
 0 <= x(76)#76 <= 1
 0 <= x(77)#77 <= 1
 0 <= x(78)#78 <= 1
 0 <= x(79)#79 <= 1
 0 <= x(80)#80 <= 1
 0 <= x(81)#81 <= 1
 0 <= x(82)#82 <= 1
 0 <= x(83)#83 <= 1
 0 <= x(84)#84 <= 1
 0 <= x(85)#85 <= 1
 0 <= x(86)#86 <= 1
 0 <= x(87)#87 <= 1
 0 <= x(88)#88 <= 1
 0 <= x(89)#89 <= 1
 0 <= x(90)#90 <= 1
 0 <= x(91)#91 <= 1
 0 <= x(92)#92 <= 1
 0 <= x(93)#93 <= 1
 0 <= x(94)#94 <= 1
 0 <= x(95)#95 <= 1
 0 <= x(96)#96 <= 1
 0 <= x(97)#97 <= 1
 0 <= x(98)#98 <= 1
 0 <= x(99)#99 <= 1
Generals
 x(0)#0  x(1)#1  x(2)#2  x(3)#3  x(4)#4  x(5)#5  x(6)#6  x(7)#7  x(8)#8 
 x(9)#9  x(10)#10  x(11)#11  x(12)#12  x(13)#13  x(14)#14  x(15)#15  x(16)#16 
 x(17)#17  x(18)#18  x(19)#19  x(20)#20  x(21)#21  x(22)#22  x(23)#23 
 x(24)#24  x(25)#25  x(26)#26  x(27)#27  x(28)#28  x(29)#29  x(30)#30 
 x(31)#31  x(32)#32  x(33)#33  x(34)#34  x(35)#35  x(36)#36  x(37)#37 
 x(38)#38  x(39)#39  x(40)#40  x(41)#41  x(42)#42  x(43)#43  x(44)#44 
 x(45)#45  x(46)#46  x(47)#47  x(48)#48  x(49)#49  x(50)#50  x(51)#51 
 x(52)#52  x(53)#53  x(54)#54  x(55)#55  x(56)#56  x(57)#57  x(58)#58 
 x(59)#59  x(60)#60  x(61)#61  x(62)#62  x(63)#63  x(64)#64  x(65)#65 
 x(66)#66  x(67)#67  x(68)#68  x(69)#69  x(70)#70  x(71)#71  x(72)#72 
 x(73)#73  x(74)#74  x(75)#75  x(76)#76  x(77)#77  x(78)#78  x(79)#79 
 x(80)#80  x(81)#81  x(82)#82  x(83)#83  x(84)#84  x(85)#85  x(86)#86 
 x(87)#87  x(88)#88  x(89)#89  x(90)#90  x(91)#91  x(92)#92  x(93)#93 
 x(94)#94  x(95)#95  x(96)#96  x(97)#97  x(98)#98  x(99)#99 
End
